&inputpp 
    outdir = '../DFT/temp'
    prefix = 'Fe'
    seedname = 'Fe'
    write_uHu = .true.
/
