&bands
    prefix = 'graphene'
    outdir = '../tmp_graphene/'
    filband = 'graphene.bands.dat'
/
