NumberOfAtoms    2           # Number of atoms
NumberOfSpecies  1           # Number of species

%block ChemicalSpeciesLabel
 1 14 Si
%endblock ChemicalSpeciesLabel

#(3) Lattice, coordinates, k-sampling

LatticeConstant       1.000000000 Ang
%block LatticeVectors
    3.827985222     0.000000000     0.000000000
    1.913992611     3.315132448     0.000000000
    1.913992611     1.105044149     3.125536846
%endblock LatticeVectors

AtomicCoordinatesFormat Ang
%block AtomicCoordinatesAndAtomicSpecies
     0.000000000     0.000000000     0.000000000    1    1
     1.913992611     1.105044149     0.781384212    1    2
%endblock AtomicCoordinatesAndAtomicSpecies
