LatticeConstant 2.7 Ang

%block LatticeVectors
0.81649 0.28867 0.50000
0.00000 0.86602 0.50000
0.00000 0.00000 1.00000
%endblock LatticeVectors

NumberOfAtoms 1
NumberOfSpecies 1

%block ChemicalSpeciesLabel
1 79 Au
%endblock ChemicalSpeciesLabel

AtomicCoordinatesFormat Fractional

%block AtomicCoordinatesAndAtomicSpecies
0.0 0.0 0.0 1
%endblock AtomicCoordinatesAndAtomicSpecies
