&control
    calculation = 'relax'
    prefix = 'Si'
    pseudo_dir = '../pseudo/'
    outdir = '../tmp_Si/'
    forc_conv_thr=1.0d-6
/
&system
    ibrav = 0, nat = 2, ntyp = 1,
    ecutwfc = 50.0,
    occupations = 'fixed'
/
&electrons
    conv_thr=1.0d-8
/
&ions
    ion_dynamics='bfgs'
/
ATOMIC_SPECIES
  Si  28.085  Si_ONCV_PBE_sr.upf
CELL_PARAMETERS (angstrom)
      0.000000     2.796000     2.796000
      2.796000     0.000000     2.796000
      2.796000     2.796000     0.000000
ATOMIC_POSITIONS (crystal)
  Si  0.000000  0.000000  0.000000
  Si  0.280000  0.230000  0.260000
K_POINTS {automatic}
  8 8 8 0 0 0
