NumberOfAtoms    3           # Number of atoms
NumberOfSpecies  2           # Number of species

%block ChemicalSpeciesLabel
 1 8 O
 2 1 H
%endblock ChemicalSpeciesLabel

#(3) Lattice, coordinates, k-sampling

LatticeConstant       1.000000000 Ang
%block LatticeVectors
   20.000000000     0.000000000     0.000000000
    0.000000000    20.000000000     0.000000000
    0.000000000     0.000000000    20.000000000
%endblock LatticeVectors

AtomicCoordinatesFormat Ang
%block AtomicCoordinatesAndAtomicSpecies
    10.000000000    10.000000000    10.298154500    1    1
    10.000000000    10.763239000    10.001845500    2    2
    10.000000000     9.236761000    10.001845500    2    3
%endblock AtomicCoordinatesAndAtomicSpecies
