NumberOfAtoms    8           # Number of atoms (conventional cubic rocksalt)
NumberOfSpecies  2           # Number of species

%block ChemicalSpeciesLabel
 1 12 Mg
 2 8 O
%endblock ChemicalSpeciesLabel

#(3) Lattice, coordinates, k-sampling
# Conventional cubic rocksalt cell: a = a_primitive * sqrt(2)

LatticeConstant       4.152266784 Ang
%block LatticeVectors
    1.000000000     0.000000000     0.000000000
    0.000000000     1.000000000     0.000000000
    0.000000000     0.000000000     1.000000000
%endblock LatticeVectors

AtomicCoordinatesFormat Fractional
%block AtomicCoordinatesAndAtomicSpecies
    0.000000000     0.000000000     0.000000000    1   Mg
    0.500000000     0.500000000     0.000000000    1   Mg
    0.500000000     0.000000000     0.500000000    1   Mg
    0.000000000     0.500000000     0.500000000    1   Mg
    0.500000000     0.000000000     0.000000000    2   O
    0.000000000     0.500000000     0.000000000    2   O
    0.000000000     0.000000000     0.500000000    2   O
    0.500000000     0.500000000     0.500000000    2   O
%endblock AtomicCoordinatesAndAtomicSpecies
