NumberOfAtoms    1
NumberOfSpecies  1

%block ChemicalSpeciesLabel
 1  79  Au
%endblock ChemicalSpeciesLabel

# FCC primitive cell, a = 4.0782 Ang (experimental)
LatticeConstant  4.0782 Ang

%block LatticeVectors
  0.0   0.5   0.5
  0.5   0.0   0.5
  0.5   0.5   0.0
%endblock LatticeVectors

AtomicCoordinatesFormat  Fractional

%block AtomicCoordinatesAndAtomicSpecies
  0.000  0.000  0.000  1
%endblock AtomicCoordinatesAndAtomicSpecies
