NumberOfAtoms    2           # Number of atoms
NumberOfSpecies  2           # Number of species

%block ChemicalSpeciesLabel
 1 31 Ga
 2 33 As
%endblock ChemicalSpeciesLabel

#(3) Lattice, coordinates, k-sampling

LatticeConstant       1.000000000 Ang
%block LatticeVectors
    3.980891847     0.000000000     0.000000000
    1.990445923     3.447553469     0.000000000
    1.990445923     1.149184490     3.250384583
%endblock LatticeVectors

AtomicCoordinatesFormat Ang
%block AtomicCoordinatesAndAtomicSpecies
     0.000000000     0.000000000     0.000000000    1    1
     1.990445923     1.149184490     0.812596146    2    2
%endblock AtomicCoordinatesAndAtomicSpecies
