NumberOfAtoms    8           # Number of atoms (conventional cubic zincblende)
NumberOfSpecies  2           # Number of species

%block ChemicalSpeciesLabel
 1 31 Ga
 2 33 As
%endblock ChemicalSpeciesLabel

#(3) Lattice, coordinates, k-sampling
# Conventional cubic zincblende cell: a = a_primitive * sqrt(2)

LatticeConstant       5.629831240 Ang
%block LatticeVectors
    1.000000000     0.000000000     0.000000000
    0.000000000     1.000000000     0.000000000
    0.000000000     0.000000000     1.000000000
%endblock LatticeVectors

AtomicCoordinatesFormat Fractional
%block AtomicCoordinatesAndAtomicSpecies
    0.000000000     0.000000000     0.000000000    1   Ga
    0.500000000     0.500000000     0.000000000    1   Ga
    0.500000000     0.000000000     0.500000000    1   Ga
    0.000000000     0.500000000     0.500000000    1   Ga
    0.250000000     0.250000000     0.250000000    2   As
    0.750000000     0.750000000     0.250000000    2   As
    0.750000000     0.250000000     0.750000000    2   As
    0.250000000     0.750000000     0.750000000    2   As
%endblock AtomicCoordinatesAndAtomicSpecies
