 &control
   calculation  = 'scf',
   restart_mode = 'from_scratch',
   prefix       = 'MnO'
   disk_io      = 'low',
   pseudo_dir   = '~/pseudo/pseudodojo/nc_sr/',
   outdir       = './temp',
   verbosity    = 'high',
 /
 &system
   ibrav = 0, celldm(1) = 10.289967, 
   nat = 4, ntyp = 3,
   ecutwfc = 100, 
   occupations = 'tetrahedra_opt'
   nspin = 2,
   starting_magnetization(1) = -0.2,
   starting_magnetization(2) = 0.2
   lacbn0 = .true., acbn0_type = 2, lda_plus_v = .true., ehub_pot_fix = .true., read_ehub_ns_file  = .true., 
   ehub_nn_distance = 3, ehub_conv_thr = 1.0D-8, ehub_mixing = 0.85
   ehub_l_choice(1,3) = 1, ehub_l_choice(2,3) = 1,
   ehub_l_choice(3,2) = 1
 /
 &electrons
   diagonalization = 'david',
   diago_full_acc  = .true.,
   conv_thr        =  1.0D-8,
   mixing_beta     =  0.7,
   startingwfc     = 'random',
 /
 ATOMIC_SPECIES
   MnA   0.000   Mn.upf
   MnB   0.000   Mn.upf
   O     0.000   O.upf
 ATOMIC_POSITIONS crystal
   MnA   0.000   0.000   0.000
   MnB   0.500   0.500   0.500
   O     0.250   0.250   0.250
   O     0.750   0.750   0.750
 K_POINTS automatic
   15  15  15  0  0  0
 CELL_PARAMETERS alat
    0.272169 0.680413 0.680413
    0.680413 0.272169 0.680413
    0.680413 0.680413 0.272169                                 
