&bands
  prefix = 'Fe'
  outdir = './temp'
  filband = 'Fe.bands.dat'
/