NumberOfAtoms    2           # Number of atoms
NumberOfSpecies  1           # Number of species

%block ChemicalSpeciesLabel
 1 14 Si
%endblock ChemicalSpeciesLabel

#(3) Lattice, coordinates, k-sampling

LatticeConstant       1.000000000 Ang
%block LatticeVectors
    3.822113010     0.000000000     0.000000000
    1.911056505     3.310046963     0.000000000
    1.911056505     1.103348987     3.120742205
%endblock LatticeVectors

AtomicCoordinatesFormat Ang
%block AtomicCoordinatesAndAtomicSpecies
     0.000000000     0.000000000     0.000000000    1    1
     1.911056505     1.103348987     0.780185552    1    2
%endblock AtomicCoordinatesAndAtomicSpecies
