NumberOfAtoms    4
NumberOfSpecies  2

%block ChemicalSpeciesLabel
 1 7 N
 2 1 H
%endblock ChemicalSpeciesLabel

LatticeConstant 10.000000000 Ang

%block LatticeVectors
    1.000000000     0.000000000     0.000000000
    0.000000000     1.000000000     0.000000000
    0.000000000     0.000000000     1.000000000
%endblock LatticeVectors

AtomicCoordinatesFormat ScaledCartesian

# NH3 초기 좌표 — 한쪽 N-H 결합을 살짝 비대칭으로 (학생이 수정해 보자)
%block AtomicCoordinatesAndAtomicSpecies
 0.5000000  0.5000000  0.5000000  1  1
 0.5950000  0.5000000  0.4650000  2  2
 0.4525000  0.5800000  0.4650000  2  3
 0.4525000  0.4200000  0.4650000  2  4
%endblock AtomicCoordinatesAndAtomicSpecies
