&dos
    prefix = 'Si'
    outdir = '../tmp_Si/'
    fildos = 'Si.dos'
    DeltaE = 0.05
/
