NumberOfAtoms    4           # Number of atoms
NumberOfSpecies  2           # Number of species

%block ChemicalSpeciesLabel
 1 7 N
 2 1 H
%endblock ChemicalSpeciesLabel

#(3) Lattice, coordinates, k-sampling

LatticeConstant       1.000000000 Ang
%block LatticeVectors
   20.000000000     0.000000000     0.000000000
    0.000000000    20.000000000     0.000000000
    0.000000000     0.000000000    20.000000000
%endblock LatticeVectors

AtomicCoordinatesFormat Ang
%block AtomicCoordinatesAndAtomicSpecies
    10.000000000     9.765067000    10.194148500    1    1
    10.000000000    10.704798000    10.005851500    2    2
    10.813831000     9.295202000    10.005851500    2    3
     9.186169000     9.295202000    10.005851500    2    4
%endblock AtomicCoordinatesAndAtomicSpecies
