SystemName       Au_bulk
SystemLabel      Au

MeshCutoff       300 Ry

XC.functional    LDA
XC.authors       CA

DM.Tolerance     1.d-4
MaxSCFIterations 100

SolutionMethod diagon

%include STRUCT.fdf
%include BASIS.fdf
%include KPT.fdf

WriteCoorStep true
WriteForces true
WriteKpoints true
