LatticeConstant 1.0 Ang

%block LatticeVectors
0.000 2.904 2.904
2.904 0.000 2.904
2.904 2.904 0.000
%endblock LatticeVectors

NumberOfAtoms 1
NumberOfSpecies 1

%block ChemicalSpeciesLabel
1 79 Au
%endblock ChemicalSpeciesLabel

AtomicCoordinatesFormat Fractional

%block AtomicCoordinatesAndAtomicSpecies
0.0 0.0 0.0 1
%endblock AtomicCoordinatesAndAtomicSpecies
