&bands
    prefix = 'Al'
    outdir = '../tmp_Al/'
    filband = 'Al.bands.dat'
/
