&bands
    prefix = 'Si'
    outdir = '../tmp_Si/'
    filband = 'Si.bands.dat'
/
