&control
    calculation = 'bands'
    prefix = 'Si'
    pseudo_dir = '../pseudo/'
    outdir = '../tmp_Si/'
    verbosity = 'high'
/
&system
    ibrav = 0, nat = 2, ntyp = 1,
    nbnd = 16,
    ecutwfc = 50.0,
    occupations = 'fixed'
/
&electrons
    conv_thr = 1.0d-8
/
ATOMIC_SPECIES
  Si  28.085  Si_ONCV_PBE_sr.upf
CELL_PARAMETERS (angstrom)
      0.000000     2.715000     2.715000
      2.715000     0.000000     2.715000
      2.715000     2.715000     0.000000
ATOMIC_POSITIONS (crystal)
  Si  0.000000  0.000000  0.000000
  Si  0.250000  0.250000  0.250000
K_POINTS {crystal_b}
6
  0.0000 0.0000 0.0000  30  ! Gamma
  0.5000 0.0000 0.5000  30  ! X
  0.5000 0.2500 0.7500  30  ! W
  0.3750 0.3750 0.7500  30  ! K
  0.0000 0.0000 0.0000  30  ! Gamma
  0.5000 0.5000 0.5000  1  ! L
