&inputpp 
    outdir = './temp'
    prefix = 'Fe'
    seedname = 'Fe'
    write_uHu = .true.
/
