NumberOfAtoms    2
NumberOfSpecies  1

%block ChemicalSpeciesLabel
 1  14  Si
%endblock ChemicalSpeciesLabel

# Diamond cubic primitive cell, a = 5.430 Ang (experimental)
LatticeConstant  5.430 Ang

%block LatticeVectors
  0.0   0.5   0.5
  0.5   0.0   0.5
  0.5   0.5   0.0
%endblock LatticeVectors

AtomicCoordinatesFormat  Fractional

%block AtomicCoordinatesAndAtomicSpecies
  0.000  0.000  0.000  1
  0.250  0.250  0.250  1
%endblock AtomicCoordinatesAndAtomicSpecies
